words_hard_train/7707.qaiger
aag 108 16 0 1 92
2
4
8
12
16
22
30
48
66
74
86
94
106
114
186
188
216
6 3 5
10 6 9
14 10 13
18 17 9
20 19 2
24 20 23
26 16 8
28 25 27
32 16 30
34 17 31
36 33 35
38 37 5
40 36 4
42 39 41
44 29 42
46 45 41
50 35 48
52 34 49
54 51 53
56 55 13
58 54 12
60 57 59
62 47 60
64 63 59
68 53 66
70 52 67
72 69 71
76 73 75
78 72 74
80 77 79
82 65 80
84 83 79
88 71 86
90 70 87
92 89 91
96 93 95
98 92 94
100 97 99
102 85 100
104 103 99
108 90 107
110 91 106
112 109 111
116 113 115
118 112 114
120 117 119
122 104 121
124 105 120
126 123 125
128 127 74
130 14 129
132 84 101
134 133 103
136 135 12
138 15 137
140 64 81
142 141 83
144 142 5
146 145 11
148 28 43
150 149 45
152 151 2
154 46 61
156 155 63
158 153 156
160 152 157
162 161 9
164 159 163
166 143 4
168 165 167
170 146 169
172 134 13
174 170 173
176 138 175
178 176 129
180 131 179
182 126 75
184 180 183
190 186 188
192 187 189
194 191 193
196 194 109
198 195 108
200 197 199
202 125 119
204 201 203
206 200 202
208 205 207
210 209 95
212 185 211
214 208 94
216 213 215
i0 2 y1[0]
i1 2 y1[2]
i2 2 y1[1]
i3 2 y1[3]
i4 1 x1[1]
i5 1 x1[0]
i6 1 x1[2]
i7 1 x1[3]
i8 1 x1[4]
i9 2 y1[4]
i10 1 x1[5]
i11 2 y1[5]
i12 1 x1[6]
i13 2 y1[6]
i14 2 y1[7]
i15 1 x1[7]
o0 bv[0]
c
simplified
  <
    subtract
      2 y1
      subtract
        1 x1
        1
    << 2
      2 y1
