words_hard_train/7707.qaiger.qdimacs
p cnf 108 277
a 33 8 11 43 15 53 24 94 0
e 1 2 3 4 5 6 7 9 10 12 13 14 16 17 18 19 20 21 22 23 25 26 27 28 29 30 31 32 34 35 36 37 38 39 40 41 42 44 45 46 47 48 49 50 51 52 54 55 56 57 58 59 60 61 62 63 64 65 66 67 68 69 70 71 72 73 74 75 76 77 78 79 80 81 82 83 84 85 86 87 88 89 90 91 92 93 95 96 97 98 99 100 101 102 103 104 105 106 107 108 0
1 2 3 0
-1 -3 0
-2 -3 0
-3 4 5 0
3 -5 0
-4 -5 0
-5 6 7 0
5 -7 0
-6 -7 0
8 4 9 0
-8 -9 0
-4 -9 0
9 -1 10 0
-9 -10 0
1 -10 0
-10 11 12 0
10 -12 0
-11 -12 0
-8 -4 13 0
8 -13 0
4 -13 0
12 13 14 0
-12 -14 0
-13 -14 0
-8 -15 16 0
8 -16 0
15 -16 0
8 15 17 0
-8 -17 0
-15 -17 0
16 17 18 0
-16 -18 0
-17 -18 0
18 2 19 0
-18 -19 0
-2 -19 0
-18 -2 20 0
18 -20 0
2 -20 0
19 20 21 0
-19 -21 0
-20 -21 0
14 -21 22 0
-14 -22 0
21 -22 0
22 20 23 0
-22 -23 0
-20 -23 0
17 -24 25 0
-17 -25 0
24 -25 0
-17 24 26 0
17 -26 0
-24 -26 0
25 26 27 0
-25 -27 0
-26 -27 0
27 6 28 0
-27 -28 0
-6 -28 0
-27 -6 29 0
27 -29 0
6 -29 0
28 29 30 0
-28 -30 0
-29 -30 0
23 -30 31 0
-23 -31 0
30 -31 0
31 29 32 0
-31 -32 0
-29 -32 0
26 -33 34 0
-26 -34 0
33 -34 0
-26 33 35 0
26 -35 0
-33 -35 0
34 35 36 0
-34 -36 0
-35 -36 0
36 37 38 0
-36 -38 0
-37 -38 0
-36 -37 39 0
36 -39 0
37 -39 0
38 39 40 0
-38 -40 0
-39 -40 0
32 -40 41 0
-32 -41 0
40 -41 0
41 39 42 0
-41 -42 0
-39 -42 0
35 -43 44 0
-35 -44 0
43 -44 0
-35 43 45 0
35 -45 0
-43 -45 0
44 45 46 0
-44 -46 0
-45 -46 0
46 47 48 0
-46 -48 0
-47 -48 0
-46 -47 49 0
46 -49 0
47 -49 0
48 49 50 0
-48 -50 0
-49 -50 0
42 -50 51 0
-42 -51 0
50 -51 0
51 49 52 0
-51 -52 0
-49 -52 0
-45 53 54 0
45 -54 0
-53 -54 0
45 -53 55 0
-45 -55 0
53 -55 0
54 55 56 0
-54 -56 0
-55 -56 0
56 57 58 0
-56 -58 0
-57 -58 0
-56 -57 59 0
56 -59 0
57 -59 0
58 59 60 0
-58 -60 0
-59 -60 0
-52 60 61 0
52 -61 0
-60 -61 0
52 -60 62 0
-52 -62 0
60 -62 0
61 62 63 0
-61 -63 0
-62 -63 0
63 -37 64 0
-63 -64 0
37 -64 0
-7 64 65 0
7 -65 0
-64 -65 0
-42 50 66 0
42 -66 0
-50 -66 0
66 51 67 0
-66 -67 0
-51 -67 0
67 -6 68 0
-67 -68 0
6 -68 0
7 68 69 0
-7 -69 0
-68 -69 0
-32 40 70 0
32 -70 0
-40 -70 0
70 41 71 0
-70 -71 0
-41 -71 0
-71 2 72 0
71 -72 0
-2 -72 0
72 5 73 0
-72 -73 0
-5 -73 0
-14 21 74 0
14 -74 0
-21 -74 0
74 22 75 0
-74 -75 0
-22 -75 0
75 -1 76 0
-75 -76 0
1 -76 0
-23 30 77 0
23 -77 0
-30 -77 0
77 31 78 0
-77 -78 0
-31 -78 0
76 -78 79 0
-76 -79 0
78 -79 0
-76 78 80 0
76 -80 0
-78 -80 0
80 4 81 0
-80 -81 0
-4 -81 0
79 81 82 0
-79 -82 0
-81 -82 0
71 -2 83 0
-71 -83 0
2 -83 0
82 83 84 0
-82 -84 0
-83 -84 0
-73 84 85 0
73 -85 0
-84 -85 0
-67 6 86 0
67 -86 0
-6 -86 0
-85 86 87 0
85 -87 0
-86 -87 0
-69 87 88 0
69 -88 0
-87 -88 0
-88 64 89 0
88 -89 0
-64 -89 0
65 89 90 0
-65 -90 0
-89 -90 0
-63 37 91 0
63 -91 0
-37 -91 0
-90 91 92 0
90 -92 0
-91 -92 0
-93 -94 95 0
93 -95 0
94 -95 0
93 94 96 0
-93 -96 0
-94 -96 0
95 96 97 0
-95 -97 0
-96 -97 0
-97 54 98 0
97 -98 0
-54 -98 0
97 -54 99 0
-97 -99 0
54 -99 0
98 99 100 0
-98 -100 0
-99 -100 0
62 59 101 0
-62 -101 0
-59 -101 0
100 101 102 0
-100 -102 0
-101 -102 0
-100 -101 103 0
100 -103 0
101 -103 0
102 103 104 0
-102 -104 0
-103 -104 0
104 47 105 0
-104 -105 0
-47 -105 0
92 105 106 0
-92 -106 0
-105 -106 0
-104 -47 107 0
104 -107 0
47 -107 0
106 107 108 0
-106 -108 0
-107 -108 0
108 0
